(declare-const X String)
; <!--[\\.|\\W|\\w]*?-->
(assert (str.in_re X (re.++ (str.to_re "<!--") (re.* (re.union (str.to_re "\u{5c}") (str.to_re ".") (str.to_re "|") (str.to_re "W") (str.to_re "w"))) (str.to_re "-->\u{a}"))))
; cyber@yahoo\x2Ecom\s+Host\x3a\x7D\x7Crichfind\x2Ecom
(assert (str.in_re X (re.++ (str.to_re "cyber@yahoo.com") (re.+ (re.union (str.to_re " ") (str.to_re "\u{9}") (str.to_re "\u{a}") (str.to_re "\u{c}") (str.to_re "\u{d}"))) (str.to_re "Host:}|richfind.com\u{a}"))))
(check-sat)

(exit)
